70
727
10
38
41
77
74
53
16
43
41
46
1
0 6
0 12
0 13
0 14
0 19
0 21
0 24
0 28
0 34
0 43
0 47
0 51
0 52
0 55
0 64
0 67
0 68
0 69
1 4
1 6
1 7
1 12
1 15
1 19
1 34
1 37
1 39
1 43
1 45
1 48
1 54
1 55
1 59
1 61
2 9
2 12
2 13
2 18
2 22
2 25
2 29
2 33
2 39
2 40
2 45
2 47
2 48
2 53
2 57
2 61
2 62
2 64
2 66
2 69
3 7
3 13
3 22
3 24
3 26
3 33
3 38
3 40
3 53
3 64
3 68
3 69
4 14
4 17
4 24
4 26
4 27
4 33
4 35
4 40
4 45
4 46
4 48
4 49
4 57
4 61
4 64
4 66
5 8
5 16
5 26
5 31
5 35
5 41
5 43
5 44
5 46
5 47
5 48
5 49
5 55
5 57
5 64
5 68
6 7
6 9
6 14
6 17
6 19
6 20
6 25
6 26
6 27
6 29
6 31
6 37
6 38
6 39
6 43
6 44
6 46
6 54
6 62
6 63
6 65
6 66
6 68
6 69
7 8
7 15
7 18
7 21
7 27
7 35
7 37
7 39
7 44
7 50
7 55
7 58
7 61
7 62
7 66
8 11
8 13
8 18
8 21
8 23
8 25
8 28
8 31
8 35
8 37
8 50
8 52
8 54
8 55
8 57
8 61
9 10
9 11
9 13
9 16
9 21
9 22
9 23
9 27
9 29
9 31
9 34
9 35
9 38
9 41
9 42
9 50
9 51
9 57
9 58
9 67
10 12
10 15
10 16
10 18
10 20
10 23
10 24
10 26
10 29
10 33
10 34
10 35
10 38
10 47
10 48
10 51
10 52
10 56
10 57
10 60
10 63
10 64
10 67
10 69
11 13
11 17
11 18
11 29
11 30
11 33
11 35
11 42
11 45
11 48
11 49
11 57
11 60
11 65
11 67
11 68
11 69
12 14
12 16
12 17
12 19
12 22
12 23
12 25
12 28
12 29
12 31
12 41
12 44
12 45
12 46
12 53
12 54
12 56
12 59
12 64
12 66
12 67
13 14
13 15
13 17
13 22
13 23
13 25
13 27
13 28
13 32
13 34
13 39
13 42
13 52
13 53
13 61
13 65
14 16
14 22
14 27
14 28
14 29
14 33
14 34
14 36
14 38
14 39
14 42
14 44
14 47
14 49
14 54
14 56
14 58
14 67
15 16
15 18
15 21
15 28
15 29
15 37
15 38
15 40
15 45
15 55
15 56
15 65
15 67
16 17
16 22
16 25
16 26
16 27
16 29
16 30
16 34
16 35
16 38
16 39
16 41
16 44
16 45
16 46
16 49
16 50
16 52
16 54
16 55
16 59
16 62
16 64
16 67
17 21
17 22
17 26
17 31
17 33
17 35
17 36
17 37
17 38
17 41
17 46
17 50
17 53
17 54
17 55
17 61
17 67
17 68
18 24
18 25
18 26
18 30
18 34
18 35
18 37
18 45
18 54
18 60
18 63
18 67
19 22
19 32
19 34
19 36
19 41
19 46
19 50
19 52
19 59
19 64
19 65
19 68
20 23
20 26
20 27
20 28
20 30
20 31
20 33
20 38
20 39
20 40
20 41
20 45
20 46
20 47
20 56
20 60
20 64
20 65
20 66
20 69
21 22
21 25
21 33
21 38
21 45
21 46
21 47
21 49
21 51
21 54
21 55
21 59
22 32
22 37
22 42
22 45
22 48
22 60
22 65
23 27
23 29
23 36
23 39
23 42
23 46
23 47
23 50
23 59
23 62
23 65
23 66
23 68
23 69
24 29
24 31
24 37
24 39
24 40
24 42
24 48
24 49
24 51
24 52
24 57
24 59
24 61
24 63
24 67
24 68
25 29
25 32
25 39
25 42
25 44
25 49
25 55
25 56
25 57
25 62
25 68
26 27
26 30
26 31
26 32
26 33
26 35
26 37
26 42
26 47
26 48
26 52
26 66
26 69
27 36
27 41
27 44
27 48
27 50
27 51
27 53
27 55
27 58
27 63
27 68
28 29
28 33
28 36
28 42
28 44
28 49
28 50
28 51
28 53
28 55
28 56
28 57
28 65
28 66
29 31
29 32
29 35
29 36
29 38
29 41
29 46
29 49
29 51
29 57
29 60
29 61
29 62
30 33
30 34
30 38
30 45
30 47
30 50
30 56
30 57
30 61
30 62
30 64
30 65
30 67
30 68
31 32
31 33
31 34
31 39
31 41
31 44
31 45
31 47
31 50
31 54
31 57
31 58
31 60
31 63
31 69
32 33
32 35
32 37
32 38
32 43
32 44
32 45
32 48
32 51
32 52
32 54
32 57
32 62
32 64
33 34
33 38
33 43
33 44
33 46
33 48
33 55
33 59
33 60
33 61
33 65
33 66
34 36
34 38
34 41
34 42
34 43
34 46
34 47
34 56
34 57
35 37
35 39
35 41
35 47
35 55
35 57
35 60
35 62
35 64
35 66
36 39
36 44
36 47
36 48
36 49
36 54
36 55
36 58
36 62
36 63
36 66
36 68
37 42
37 47
37 48
37 53
37 56
37 57
37 58
37 62
37 65
37 67
37 69
38 39
38 45
38 47
38 49
38 53
38 54
38 59
38 67
39 40
39 46
39 53
39 58
39 64
39 66
39 67
40 43
40 46
40 55
40 56
40 62
40 64
40 66
41 46
41 49
41 50
41 51
41 53
41 54
41 55
41 65
41 66
41 67
41 69
42 44
42 54
42 55
42 57
42 58
42 60
42 63
42 67
43 46
43 48
43 51
43 53
43 55
43 56
43 64
43 66
44 45
44 47
44 51
44 54
44 55
44 59
44 63
44 65
44 66
45 49
45 50
45 51
45 53
45 54
45 56
45 57
45 60
45 64
45 65
45 66
46 51
46 52
46 53
46 54
47 49
47 50
47 53
47 57
47 62
47 66
47 67
47 68
48 49
48 51
48 57
48 58
48 61
49 57
49 67
50 55
50 56
50 59
50 60
50 69
51 53
51 54
51 57
51 58
51 60
51 62
51 65
51 69
52 56
52 57
52 58
52 61
52 62
52 66
52 67
53 54
53 55
53 61
53 62
53 64
53 68
53 69
54 58
54 65
54 67
55 57
55 58
55 62
55 65
55 67
56 57
56 69
57 59
57 62
57 65
57 69
58 63
59 60
59 63
59 69
60 61
60 62
60 68
61 62
61 69
62 64
62 65
62 67
62 69
63 64
63 67
63 68
64 67
64 68
65 68
66 67
67 68
68 69
28 33 69 50 31 32 14
39 49 57 35 60 59 47
23 64 66 40 53 3 15
29 55 62 48 42 37 13
68 65 61 27 34 18 1
6 26 20 0 38 2 45
22 10 36 56 16 67 43
52 12 4 5 63 41 19
21 54 30 7 46 25 51
24 8 44 58 11 9 17
